70 170999
67 53 46 1 13 40 65 58 28 21 50 32 7 3 61 8 57 12 69 27 16 2 15 25 49 19 17 68 31 30 39 63 43 60 56 66 22 14 26 29 4 33 51 37 9 42 20 54 62 18 5 44 38 23 6 24 35 70 52 55 11 36 34 59 10 45 48 41 64 47 
